p ocr 20 20 80
6 22
20 21
12 26
3 23
20 39
10 38
3 32
8 31
19 31
5 23
4 27
15 36
18 35
4 36
3 25
14 31
4 29
10 24
4 22
18 21
20 27
10 26
12 23
2 24
16 23
19 28
4 33
16 25
17 24
8 30
19 30
3 27
11 40
4 28
15 37
9 36
8 25
2 39
3 38
15 30
6 27
20 29
14 25
3 22
20 38
11 35
3 31
15 23
5 22
4 32
9 22
12 27
11 37
2 34
3 33
7 33
13 37
18 27
18 36
20 33
10 32
1 29
11 39
16 38
19 34
6 36
1 40
16 31
7 28
8 27
5 28
5 37
18 31
18 40
9 37
11 34
3 21
1 33
16 24
19 29
